Normalized Data/p04_15_normalized_splitx10_0.vrp
NAME:p04_15_NORMALIZED_splitx10_
BEST_KNOWN: 0
COMMENT: 0
DIMENSION: 627
CAPACITY: 1000
EDGE_WEIGHT_FORMAT: FUNCTION
EDGE_WEIGHT_TYPE: EXACT_2D
NODE_COORD_SECTION
1 0.00000 0.00000
2 4 49
3 4 49
4 4 49
5 4 49
6 -32 -48
7 -32 -48
8 -32 -48
9 -32 -48
10 -1 17
11 -1 17
12 -5 -30
13 -5 -30
14 -5 -30
15 -5 -30
16 -5 -30
17 -5 -30
18 43 36
19 43 36
20 43 36
21 43 36
22 43 36
23 12 -48
24 12 -48
25 12 -48
26 46 -31
27 -39 45
28 -39 45
29 -39 45
30 -39 45
31 26 34
32 26 34
33 26 34
34 38 -40
35 38 -40
36 38 -40
37 38 -40
38 38 -40
39 11 11
40 11 11
41 11 11
42 11 11
43 11 11
44 19 44
45 19 44
46 11 19
47 11 19
48 11 19
49 11 19
50 11 19
51 -27 -45
52 -27 -45
53 -27 -45
54 -2 28
55 -2 28
56 -2 28
57 -24 -36
58 -24 -36
59 -24 -36
60 -24 -36
61 29 -9
62 29 -9
63 29 -9
64 50 31
65 50 31
66 50 31
67 50 31
68 50 31
69 50 31
70 -44 38
71 -44 38
72 -44 38
73 -44 38
74 -44 38
75 -44 38
76 -27 -31
77 -27 -31
78 -27 -31
79 -27 -31
80 6 45
81 6 45
82 6 45
83 6 45
84 6 45
85 15 -30
86 15 -30
87 26 45
88 26 45
89 26 45
90 26 45
91 26 45
92 26 45
93 26 45
94 34 50
95 34 50
96 34 50
97 -22 1
98 -22 1
99 -22 1
100 29 -42
101 29 -42
102 29 -42
103 29 -42
104 29 -42
105 8 0
106 8 0
107 8 0
108 8 0
109 8 0
110 8 0
111 8 0
112 -17 46
113 -17 46
114 -17 46
115 -17 46
116 -27 50
117 -27 50
118 -27 50
119 -27 50
120 -27 50
121 23 13
122 23 13
123 23 13
124 25 49
125 25 49
126 25 49
127 4 9
128 4 9
129 4 9
130 4 9
131 4 9
132 -50 -30
133 -50 -30
134 -1 -1
135 -1 -1
136 -1 -1
137 -7 12
138 -7 12
139 -7 12
140 -7 12
141 -7 12
142 -7 12
143 -7 12
144 -28 10
145 -28 10
146 45 43
147 45 43
148 45 43
149 45 43
150 45 43
151 45 43
152 45 43
153 24 10
154 24 10
155 24 10
156 24 10
157 37 -28
158 37 -28
159 37 -28
160 37 -28
161 37 -28
162 37 -28
163 6 -7
164 6 -7
165 6 -7
166 6 -7
167 -7 32
168 -7 32
169 -7 32
170 3 -28
171 3 -28
172 3 -28
173 3 -28
174 -28 14
175 -28 14
176 16 11
177 16 11
178 -2 16
179 -2 16
180 -2 16
181 -2 16
182 -2 16
183 8 4
184 8 4
185 8 4
186 24 27
187 24 27
188 24 27
189 24 27
190 24 27
191 48 40
192 48 40
193 48 40
194 48 40
195 48 40
196 -33 -25
197 -33 -25
198 -33 -25
199 -33 -25
200 -33 -25
201 -33 -25
202 -16 -31
203 -14 43
204 -14 43
205 -14 43
206 -14 43
207 -14 43
208 -14 43
209 -22 32
210 -22 32
211 -22 32
212 -22 32
213 -22 32
214 -23 23
215 -23 23
216 -23 23
217 -23 23
218 -23 23
219 -23 23
220 -11 -45
221 -11 -45
222 -11 -45
223 -11 -45
224 -40 30
225 -40 30
226 -40 30
227 -40 30
228 -40 30
229 -40 30
230 9 40
231 9 40
232 9 40
233 9 40
234 9 40
235 37 20
236 37 20
237 37 20
238 37 20
239 37 20
240 26 37
241 26 37
242 26 37
243 26 37
244 -32 -50
245 -32 -50
246 -32 -50
247 34 13
248 34 13
249 34 13
250 34 13
251 -50 -26
252 -50 -26
253 -50 -26
254 -50 -26
255 -50 -26
256 46 26
257 46 26
258 46 26
259 46 26
260 46 26
261 46 26
262 -17 -33
263 -17 -33
264 -17 -33
265 35 -2
266 35 -2
267 35 -2
268 35 -2
269 35 -2
270 35 -2
271 -37 -29
272 -37 -29
273 -37 -29
274 -40 26
275 -40 26
276 -40 26
277 -14 -18
278 -14 -18
279 -14 -18
280 -14 -18
281 -14 -18
282 -14 -18
283 -38 -26
284 -38 -26
285 -38 -26
286 -38 -26
287 -38 -26
288 -38 -26
289 9 6
290 9 6
291 44 18
292 44 18
293 44 -29
294 44 -29
295 44 -29
296 44 -29
297 42 -19
298 42 -19
299 42 -19
300 42 -19
301 42 -19
302 42 -19
303 42 -19
304 -24 24
305 -24 24
306 -24 24
307 -24 24
308 -24 24
309 -24 24
310 38 0
311 38 0
312 38 0
313 38 0
314 -24 -49
315 -24 -49
316 -24 -49
317 -24 -49
318 25 -50
319 25 -50
320 25 -50
321 25 -50
322 25 -50
323 25 -50
324 -1 41
325 -1 41
326 -1 41
327 -34 -39
328 -34 -39
329 -34 -39
330 -34 -39
331 -34 -39
332 -25 -21
333 -25 -21
334 -25 -21
335 -25 -21
336 -25 -21
337 15 11
338 15 11
339 15 11
340 15 11
341 15 11
342 20 -22
343 20 -22
344 40 24
345 40 24
346 40 24
347 40 24
348 40 24
349 40 24
350 26 -28
351 26 -28
352 26 -28
353 26 -28
354 26 -28
355 26 -28
356 11 7
357 11 7
358 11 7
359 11 7
360 11 7
361 46 -46
362 46 -46
363 46 -46
364 46 -46
365 46 -46
366 30 -11
367 30 -11
368 30 -11
369 30 -11
370 30 -11
371 30 -11
372 29 49
373 29 49
374 29 49
375 29 49
376 44 13
377 44 13
378 44 13
379 44 13
380 44 13
381 44 13
382 44 13
383 -18 28
384 -18 28
385 3 -48
386 3 -48
387 3 -48
388 3 -48
389 3 -48
390 3 -48
391 -39 -3
392 -39 -3
393 -39 -3
394 -38 -24
395 -38 -24
396 -38 -24
397 -38 -24
398 -38 -24
399 -38 -24
400 -27 -14
401 -27 -14
402 -27 -14
403 -27 -14
404 -27 -14
405 -2 -37
406 -2 -37
407 -28 -46
408 -28 -46
409 -28 -46
410 -28 -46
411 5 -8
412 5 -8
413 5 -8
414 1 37
415 1 37
416 1 37
417 1 37
418 1 37
419 1 37
420 48 29
421 48 29
422 48 29
423 48 29
424 48 29
425 48 29
426 48 29
427 -46 -39
428 -46 -39
429 -46 -39
430 45 -35
431 45 -35
432 45 -35
433 45 -35
434 45 -35
435 45 -35
436 -45 45
437 -45 45
438 -45 45
439 -45 45
440 -45 45
441 -19 30
442 -19 30
443 -19 30
444 -36 5
445 -36 5
446 -39 -5
447 -39 -5
448 -39 -5
449 -39 -5
450 -39 -5
451 -10 6
452 -10 6
453 -6 -20
454 -32 -6
455 -32 -6
456 -32 -6
457 -32 -6
458 -32 -6
459 -4 -44
460 -4 -44
461 -4 -44
462 40 33
463 40 33
464 40 33
465 40 33
466 40 33
467 -2 -24
468 -2 -24
469 -2 -24
470 -2 -24
471 -2 -24
472 -2 -24
473 -18 37
474 -18 37
475 -18 37
476 -18 37
477 -18 37
478 -18 37
479 43 11
480 -9 -31
481 -9 -31
482 -9 -31
483 -9 -31
484 23 -6
485 23 -6
486 23 -6
487 -27 43
488 -27 43
489 -27 43
490 -18 -29
491 -18 -29
492 -18 -29
493 -18 -29
494 -18 -29
495 -18 -29
496 48 45
497 48 45
498 48 45
499 48 45
500 -50 -30
501 -50 -30
502 -50 -30
503 -50 -30
504 -50 -30
505 -16 -18
506 -16 -18
507 -16 -18
508 -16 -18
509 -16 -18
510 -43 40
511 -43 40
512 -43 40
513 -43 40
514 -43 40
515 29 -32
516 29 -32
517 29 -32
518 29 -32
519 1 25
520 1 25
521 1 25
522 -19 35
523 -19 35
524 -19 35
525 -19 35
526 -19 35
527 40 5
528 40 5
529 40 5
530 40 5
531 1 -10
532 1 -10
533 1 -10
534 16 -25
535 16 -25
536 16 -25
537 29 19
538 29 19
539 29 19
540 29 19
541 -5 -6
542 -5 -6
543 -5 -6
544 20 5
545 20 5
546 20 5
547 30 15
548 30 15
549 30 15
550 31 -7
551 31 -7
552 31 -7
553 -23 -31
554 -23 -31
555 -23 -31
556 -23 -31
557 -20 30
558 -20 30
559 -20 30
560 13 -50
561 13 -50
562 13 -50
563 13 -50
564 13 -50
565 13 -50
566 -46 24
567 -46 24
568 -46 24
569 12 18
570 12 18
571 12 18
572 12 18
573 47 -40
574 5 -13
575 5 -13
576 5 -13
577 5 -13
578 -42 34
579 -42 34
580 -42 34
581 -42 34
582 -42 34
583 -19 -6
584 -19 -6
585 -19 -6
586 -19 -6
587 -19 -6
588 16 -15
589 16 -15
590 16 -15
591 15 13
592 15 13
593 -34 -49
594 -34 -49
595 -34 -49
596 -34 -49
597 -34 -49
598 -34 -49
599 -34 -49
600 -15 5
601 -15 5
602 -15 5
603 5 -18
604 5 -18
605 38 7
606 38 7
607 13 -16
608 13 -16
609 13 -16
610 13 -16
611 13 -16
612 13 -16
613 13 -16
614 40 -20
615 40 -20
616 40 -20
617 40 -20
618 40 -20
619 40 -20
620 -32 20
621 -32 20
622 -32 20
623 -32 20
624 -20 40
625 -20 40
626 -20 40
627 -20 40
DEMAND_SECTION
1 0
2 200
3 200
4 50
5 10
6 200
7 100
8 50
9 10
10 200
11 50
12 200
13 50
14 10
15 10
16 10
17 10
18 200
19 100
20 10
21 10
22 10
23 100
24 50
25 10
26 200
27 200
28 100
29 50
30 10
31 200
32 100
33 10
34 200
35 50
36 10
37 10
38 10
39 100
40 10
41 10
42 10
43 10
44 200
45 200
46 200
47 200
48 10
49 10
50 10
51 100
52 10
53 10
54 200
55 100
56 10
57 200
58 200
59 50
60 10
61 200
62 100
63 50
64 200
65 200
66 50
67 10
68 10
69 10
70 100
71 50
72 10
73 10
74 10
75 10
76 200
77 200
78 10
79 10
80 200
81 100
82 50
83 10
84 10
85 200
86 10
87 200
88 200
89 50
90 10
91 10
92 10
93 10
94 100
95 10
96 10
97 200
98 200
99 50
100 100
101 50
102 10
103 10
104 10
105 200
106 100
107 50
108 10
109 10
110 10
111 10
112 100
113 50
114 10
115 10
116 100
117 10
118 10
119 10
120 10
121 200
122 200
123 50
124 200
125 10
126 10
127 200
128 100
129 10
130 10
131 10
132 200
133 10
134 200
135 200
136 10
137 200
138 200
139 50
140 10
141 10
142 10
143 10
144 200
145 50
146 200
147 200
148 50
149 10
150 10
151 10
152 10
153 200
154 200
155 50
156 10
157 200
158 100
159 50
160 10
161 10
162 10
163 100
164 50
165 10
166 10
167 200
168 200
169 100
170 200
171 10
172 10
173 10
174 200
175 50
176 200
177 200
178 200
179 100
180 50
181 10
182 10
183 200
184 100
185 50
186 200
187 200
188 10
189 10
190 10
191 100
192 50
193 10
194 10
195 10
196 200
197 200
198 10
199 10
200 10
201 10
202 200
203 200
204 100
205 10
206 10
207 10
208 10
209 100
210 50
211 10
212 10
213 10
214 200
215 100
216 50
217 10
218 10
219 10
220 200
221 100
222 50
223 10
224 200
225 50
226 10
227 10
228 10
229 10
230 200
231 100
232 10
233 10
234 10
235 200
236 200
237 50
238 10
239 10
240 100
241 50
242 10
243 10
244 200
245 200
246 50
247 100
248 10
249 10
250 10
251 200
252 200
253 10
254 10
255 10
256 200
257 100
258 10
259 10
260 10
261 10
262 200
263 50
264 10
265 200
266 50
267 10
268 10
269 10
270 10
271 200
272 100
273 50
274 200
275 100
276 50
277 200
278 100
279 10
280 10
281 10
282 10
283 200
284 200
285 10
286 10
287 10
288 10
289 200
290 200
291 200
292 100
293 200
294 10
295 10
296 10
297 200
298 200
299 50
300 10
301 10
302 10
303 10
304 200
305 50
306 10
307 10
308 10
309 10
310 200
311 100
312 50
313 10
314 200
315 200
316 10
317 10
318 100
319 50
320 10
321 10
322 10
323 10
324 200
325 100
326 10
327 100
328 10
329 10
330 10
331 10
332 200
333 100
334 50
335 10
336 10
337 200
338 100
339 50
340 10
341 10
342 100
343 50
344 200
345 100
346 10
347 10
348 10
349 10
350 200
351 100
352 10
353 10
354 10
355 10
356 200
357 50
358 10
359 10
360 10
361 200
362 100
363 50
364 10
365 10
366 200
367 50
368 10
369 10
370 10
371 10
372 200
373 100
374 10
375 10
376 200
377 200
378 50
379 10
380 10
381 10
382 10
383 200
384 10
385 200
386 200
387 10
388 10
389 10
390 10
391 200
392 200
393 50
394 200
395 50
396 10
397 10
398 10
399 10
400 200
401 100
402 10
403 10
404 10
405 100
406 50
407 200
408 100
409 10
410 10
411 200
412 100
413 50
414 200
415 200
416 10
417 10
418 10
419 10
420 200
421 100
422 50
423 10
424 10
425 10
426 10
427 200
428 100
429 50
430 200
431 100
432 50
433 10
434 10
435 10
436 200
437 200
438 50
439 10
440 10
441 200
442 200
443 10
444 100
445 50
446 200
447 200
448 10
449 10
450 10
451 200
452 200
453 200
454 200
455 50
456 10
457 10
458 10
459 200
460 100
461 50
462 200
463 50
464 10
465 10
466 10
467 200
468 200
469 50
470 10
471 10
472 10
473 200
474 200
475 10
476 10
477 10
478 10
479 200
480 100
481 50
482 10
483 10
484 200
485 200
486 100
487 100
488 50
489 10
490 200
491 200
492 10
493 10
494 10
495 10
496 200
497 100
498 10
499 10
500 200
501 50
502 10
503 10
504 10
505 100
506 50
507 10
508 10
509 10
510 200
511 100
512 10
513 10
514 10
515 200
516 200
517 10
518 10
519 200
520 50
521 10
522 100
523 10
524 10
525 10
526 10
527 200
528 200
529 10
530 10
531 100
532 50
533 10
534 200
535 100
536 10
537 200
538 100
539 50
540 10
541 200
542 100
543 50
544 200
545 100
546 10
547 200
548 200
549 50
550 200
551 100
552 50
553 200
554 100
555 50
556 10
557 200
558 200
559 100
560 200
561 100
562 50
563 10
564 10
565 10
566 200
567 200
568 50
569 200
570 10
571 10
572 10
573 200
574 200
575 100
576 10
577 10
578 100
579 10
580 10
581 10
582 10
583 200
584 200
585 50
586 10
587 10
588 200
589 100
590 50
591 200
592 100
593 200
594 200
595 50
596 10
597 10
598 10
599 10
600 200
601 10
602 10
603 200
604 50
605 200
606 100
607 200
608 100
609 50
610 10
611 10
612 10
613 10
614 200
615 100
616 10
617 10
618 10
619 10
620 200
621 200
622 10
623 10
624 200
625 10
626 10
627 10
DEPOT_SECTION
1
-1
EOF