Normalized Data/p04_15_normalized_splitx10_0.sol
626 -9 177 178 180 181 179 137 136 142 -10 415 414 82 81 79 80 83 231 233 230 229 232 -24 23 22 564 563 560 561 562 559 384 389 388 386 385 387 532 -30 31 32 88 87 86 90 92 91 89 44 -42 40 39 41 38 339 336 338 337 340 176 175 358 357 359 356 -43 123 124 125 373 374 371 372 95 94 93 241 239 242 -48 49 47 46 45 568 571 570 569 591 590 -51 52 50 406 408 407 409 8 7 5 6 326 327 328 329 330 278 281 280 -57 314 316 315 313 220 221 219 222 -58 595 594 598 592 597 593 596 244 243 245 -63 66 65 68 64 67 421 424 419 422 425 423 420 344 348 347 -75 77 78 76 59 56 555 552 554 553 -98 96 97 586 585 583 584 582 542 -109 110 107 108 106 104 105 184 183 182 -121 120 152 153 543 -122 346 345 343 235 236 234 237 238 546 548 155 -128 126 130 129 127 355 288 289 -135 134 133 451 450 -139 138 140 141 383 382 441 440 442 558 557 -148 145 147 149 151 150 146 498 495 497 496 193 190 192 191 194 -162 412 410 411 574 573 531 540 -165 164 163 353 352 350 349 354 515 514 533 -167 166 54 55 53 520 518 519 -168 206 203 204 202 207 205 112 114 113 111 118 116 115 119 117 623 625 626 624 -188 187 189 185 186 536 539 537 538 547 -201 261 263 262 490 494 493 491 492 489 541 -215 214 216 213 218 217 305 306 304 308 303 307 619 621 622 174 601 600 -225 223 228 226 224 227 580 579 581 578 577 74 73 70 69 72 71 513 509 510 511 512 -240 461 462 464 463 465 18 21 19 20 17 255 260 257 256 259 258 -247 290 291 376 381 375 380 379 378 377 478 -250 252 251 253 254 503 500 502 501 131 499 132 394 395 396 397 -277 279 276 335 331 333 332 403 399 400 401 402 -294 295 293 292 25 159 157 156 161 160 158 342 341 -310 312 311 309 269 264 268 267 265 266 549 551 550 -323 325 324 4 2 1 3 413 418 417 416 -334 199 200 198 197 195 196 271 272 270 507 506 508 505 504 -351 36 35 37 33 34 103 101 102 99 100 319 320 322 318 317 321 85 84 534 535 576 575 -367 365 369 62 60 61 483 484 -391 390 392 449 447 445 446 448 457 455 456 454 -398 393 285 282 284 287 283 286 427 428 426 -434 432 431 433 429 430 572 364 362 360 363 361 516 517 -438 435 439 437 436 26 29 27 28 486 488 487 -452 15 11 14 12 13 16 470 471 468 467 469 466 -453 443 444 143 144 173 599 -476 475 477 472 474 473 525 522 521 524 523 208 209 211 210 212 556 -480 479 482 481 458 460 459 404 405 169 171 172 170 530 -485 368 370 366 297 299 300 302 296 298 301 613 618 617 614 616 615 -529 527 528 526 605 604 248 249 246 154 544 545 -566 567 565 273 275 274 620 -588 589 587 609 606 608 610 611 607 612 603 602 0 





OBJ=
4422.792
BEST_KNOWN=
0.000